
Gurobi 7.5.2 (linux64, Python) logging started Tue Apr 24 15:42:52 2018

Academic license - for non-commercial use only

Gurobi 7.5.2 (linux64, Python) logging started Tue Apr 24 16:18:57 2018

Academic license - for non-commercial use only
